predicate gecode_int_element(var int: idx,int: idxoffset,array [int] of var int: x,var int: c);
predicate gecode_circuit(int: offset,array [int] of var int: x);
array [1..22] of int: X_INTRODUCED_39_ = [0,20,17,34,8,20,10,17,29,16,25,30,24,30,22,20,9,17,22,14,13,0];
array [1..22] of int: X_INTRODUCED_41_ = [20,0,10,42,27,3,27,25,15,17,18,14,19,49,17,6,21,14,17,13,31,0];
array [1..22] of int: X_INTRODUCED_43_ = [17,10,0,47,23,13,27,16,25,23,27,25,27,45,7,5,23,21,25,19,30,0];
array [1..22] of int: X_INTRODUCED_45_ = [34,42,47,0,37,40,26,52,36,25,28,39,26,45,54,47,26,28,26,29,27,0];
array [1..22] of int: X_INTRODUCED_47_ = [8,27,23,37,0,28,11,17,37,22,32,38,31,22,26,26,15,24,29,21,11,0];
array [1..22] of int: X_INTRODUCED_49_ = [20,3,13,40,28,0,26,27,12,15,15,12,16,50,20,9,20,12,14,11,30,0];
array [1..22] of int: X_INTRODUCED_51_ = [10,27,27,26,11,26,0,27,32,15,25,33,23,26,32,29,7,18,22,16,4,0];
array [1..22] of int: X_INTRODUCED_53_ = [17,25,16,52,17,27,27,0,39,31,38,39,38,34,13,21,27,31,36,28,28,0];
array [1..22] of int: X_INTRODUCED_55_ = [29,15,25,36,37,12,32,39,0,17,9,2,11,57,32,21,25,13,11,16,36,0];
array [1..22] of int: X_INTRODUCED_57_ = [16,17,23,25,22,15,15,31,17,0,10,19,9,41,30,22,8,4,7,4,19,0];
array [1..22] of int: X_INTRODUCED_59_ = [25,18,27,28,32,15,25,38,9,10,0,11,2,51,34,24,18,8,3,11,29,0];
array [1..22] of int: X_INTRODUCED_61_ = [30,14,25,39,38,12,33,39,2,19,11,0,13,59,31,20,26,15,13,17,38,0];
array [1..22] of int: X_INTRODUCED_63_ = [24,19,27,26,31,16,23,38,11,9,2,13,0,50,34,25,17,7,2,10,28,0];
array [1..22] of int: X_INTRODUCED_65_ = [30,49,45,45,22,50,26,34,57,41,51,59,50,0,46,49,33,44,48,42,22,0];
array [1..22] of int: X_INTRODUCED_67_ = [22,17,7,54,26,20,32,13,32,30,34,31,34,46,0,11,29,28,33,26,34,0];
array [1..22] of int: X_INTRODUCED_69_ = [20,6,5,47,26,9,29,21,21,22,24,20,25,49,11,0,24,19,23,18,32,0];
array [1..22] of int: X_INTRODUCED_71_ = [9,21,23,26,15,20,7,27,25,8,18,26,17,33,29,24,0,12,16,9,11,0];
array [1..22] of int: X_INTRODUCED_73_ = [17,14,21,28,24,12,18,31,13,4,8,15,7,44,28,19,12,0,5,3,23,0];
array [1..22] of int: X_INTRODUCED_75_ = [22,17,25,26,29,14,22,36,11,7,3,13,2,48,33,23,16,5,0,8,26,0];
array [1..22] of int: X_INTRODUCED_77_ = [14,13,19,29,21,11,16,28,16,4,11,17,10,42,26,18,9,3,8,0,21,0];
array [1..22] of int: X_INTRODUCED_79_ = [13,31,30,27,11,30,4,28,36,19,29,38,28,22,34,32,11,23,26,21,0,0];
array [1..3] of int: X_INTRODUCED_150_ = [1,-1,-1];
var 1..22: X_INTRODUCED_16_;
var 1..22: X_INTRODUCED_17_;
var 1..22: X_INTRODUCED_18_;
var 1..22: X_INTRODUCED_19_;
var 1..22: X_INTRODUCED_20_;
var 1..22: X_INTRODUCED_21_;
var 1..22: X_INTRODUCED_22_;
var 1..22: X_INTRODUCED_23_;
var 1..22: X_INTRODUCED_24_;
var 1..22: X_INTRODUCED_25_;
var 1..22: X_INTRODUCED_26_;
var 1..22: X_INTRODUCED_27_;
var 1..22: X_INTRODUCED_28_;
var 1..22: X_INTRODUCED_29_;
var 1..22: X_INTRODUCED_30_;
var 1..22: X_INTRODUCED_31_;
var 1..22: X_INTRODUCED_32_;
var 1..22: X_INTRODUCED_33_;
var 1..22: X_INTRODUCED_34_;
var 1..22: X_INTRODUCED_35_;
var 1..22: X_INTRODUCED_36_;
var 1..22: X_INTRODUCED_37_;
var 0..34: X_INTRODUCED_40_ ::var_is_introduced :: is_defined_var;
var 0..49: X_INTRODUCED_42_ ::var_is_introduced :: is_defined_var;
var 0..47: X_INTRODUCED_44_ ::var_is_introduced :: is_defined_var;
var 0..54: X_INTRODUCED_46_ ::var_is_introduced :: is_defined_var;
var 0..38: X_INTRODUCED_48_ ::var_is_introduced :: is_defined_var;
var 0..50: X_INTRODUCED_50_ ::var_is_introduced :: is_defined_var;
var 0..33: X_INTRODUCED_52_ ::var_is_introduced :: is_defined_var;
var 0..52: X_INTRODUCED_54_ ::var_is_introduced :: is_defined_var;
var 0..57: X_INTRODUCED_56_ ::var_is_introduced :: is_defined_var;
var 0..41: X_INTRODUCED_58_ ::var_is_introduced :: is_defined_var;
var 0..51: X_INTRODUCED_60_ ::var_is_introduced :: is_defined_var;
var 0..59: X_INTRODUCED_62_ ::var_is_introduced :: is_defined_var;
var 0..50: X_INTRODUCED_64_ ::var_is_introduced :: is_defined_var;
var 0..59: X_INTRODUCED_66_ ::var_is_introduced :: is_defined_var;
var 0..54: X_INTRODUCED_68_ ::var_is_introduced :: is_defined_var;
var 0..49: X_INTRODUCED_70_ ::var_is_introduced :: is_defined_var;
var 0..33: X_INTRODUCED_72_ ::var_is_introduced :: is_defined_var;
var 0..44: X_INTRODUCED_74_ ::var_is_introduced :: is_defined_var;
var 0..48: X_INTRODUCED_76_ ::var_is_introduced :: is_defined_var;
var 0..42: X_INTRODUCED_78_ ::var_is_introduced :: is_defined_var;
var 0..38: X_INTRODUCED_80_ ::var_is_introduced :: is_defined_var;
var 0..492: X_INTRODUCED_81_:: is_defined_var;
var 0..507: X_INTRODUCED_82_:: is_defined_var;
var 0..505: X_INTRODUCED_83_:: is_defined_var;
var 0..512: X_INTRODUCED_84_:: is_defined_var;
var 0..496: X_INTRODUCED_85_:: is_defined_var;
var 0..508: X_INTRODUCED_86_:: is_defined_var;
var 0..491: X_INTRODUCED_87_:: is_defined_var;
var 0..510: X_INTRODUCED_88_:: is_defined_var;
var 0..515: X_INTRODUCED_89_:: is_defined_var;
var 0..499: X_INTRODUCED_90_:: is_defined_var;
var 0..509: X_INTRODUCED_91_:: is_defined_var;
var 0..517: X_INTRODUCED_92_:: is_defined_var;
var 0..508: X_INTRODUCED_93_:: is_defined_var;
var 0..517: X_INTRODUCED_94_:: is_defined_var;
var 0..512: X_INTRODUCED_95_:: is_defined_var;
var 0..507: X_INTRODUCED_96_:: is_defined_var;
var 0..491: X_INTRODUCED_97_:: is_defined_var;
var 0..502: X_INTRODUCED_98_:: is_defined_var;
var 0..506: X_INTRODUCED_99_:: is_defined_var;
var 0..500: X_INTRODUCED_100_:: is_defined_var;
var 0..496: X_INTRODUCED_101_:: is_defined_var;
var 0..458: X_INTRODUCED_102_ ::var_is_introduced ;
var 12..118: X_INTRODUCED_103_ ::var_is_introduced ;
var 131..255: X_INTRODUCED_104_ ::var_is_introduced ;
var 256..374: X_INTRODUCED_105_ ::var_is_introduced ;
var 164..267: X_INTRODUCED_106_ ::var_is_introduced ;
var 1..111: X_INTRODUCED_107_ ::var_is_introduced ;
var 52..179: X_INTRODUCED_108_ ::var_is_introduced ;
var 125..236: X_INTRODUCED_109_ ::var_is_introduced ;
var 200..313: X_INTRODUCED_110_ ::var_is_introduced ;
var 0..73: X_INTRODUCED_111_ ::var_is_introduced ;
var 0..99: X_INTRODUCED_112_ ::var_is_introduced ;
var 29..140: X_INTRODUCED_113_ ::var_is_introduced ;
var 28..146: X_INTRODUCED_114_ ::var_is_introduced ;
var 90..204: X_INTRODUCED_115_ ::var_is_introduced ;
var 304..436: X_INTRODUCED_116_ ::var_is_introduced ;
var 0..113: X_INTRODUCED_117_ ::var_is_introduced ;
var 0..63: X_INTRODUCED_118_ ::var_is_introduced ;
var 0..92: X_INTRODUCED_119_ ::var_is_introduced ;
var 0..83: X_INTRODUCED_120_ ::var_is_introduced ;
var 0..71: X_INTRODUCED_121_ ::var_is_introduced ;
var 225..350: X_INTRODUCED_122_ ::var_is_introduced ;
var 0..458: X_INTRODUCED_125_ ::var_is_introduced :: is_defined_var;
var 0..458: X_INTRODUCED_126_ ::var_is_introduced :: is_defined_var;
var 0..458: X_INTRODUCED_127_ ::var_is_introduced :: is_defined_var;
var 0..458: X_INTRODUCED_128_ ::var_is_introduced :: is_defined_var;
var 0..458: X_INTRODUCED_129_ ::var_is_introduced :: is_defined_var;
var 0..458: X_INTRODUCED_130_ ::var_is_introduced :: is_defined_var;
var 0..458: X_INTRODUCED_131_ ::var_is_introduced :: is_defined_var;
var 0..458: X_INTRODUCED_132_ ::var_is_introduced :: is_defined_var;
var 0..458: X_INTRODUCED_133_ ::var_is_introduced :: is_defined_var;
var 0..458: X_INTRODUCED_134_ ::var_is_introduced :: is_defined_var;
var 0..458: X_INTRODUCED_135_ ::var_is_introduced :: is_defined_var;
var 0..458: X_INTRODUCED_136_ ::var_is_introduced :: is_defined_var;
var 0..458: X_INTRODUCED_137_ ::var_is_introduced :: is_defined_var;
var 0..458: X_INTRODUCED_138_ ::var_is_introduced :: is_defined_var;
var 0..458: X_INTRODUCED_139_ ::var_is_introduced :: is_defined_var;
var 0..458: X_INTRODUCED_140_ ::var_is_introduced :: is_defined_var;
var 0..458: X_INTRODUCED_141_ ::var_is_introduced :: is_defined_var;
var 0..458: X_INTRODUCED_142_ ::var_is_introduced :: is_defined_var;
var 0..458: X_INTRODUCED_143_ ::var_is_introduced :: is_defined_var;
var 0..458: X_INTRODUCED_144_ ::var_is_introduced :: is_defined_var;
var 0..458: X_INTRODUCED_145_ ::var_is_introduced :: is_defined_var;
var 0..458: X_INTRODUCED_146_ ::var_is_introduced :: is_defined_var;
array [1..22] of var int: pred:: output_array([1..22]) = [X_INTRODUCED_16_,X_INTRODUCED_17_,X_INTRODUCED_18_,X_INTRODUCED_19_,X_INTRODUCED_20_,X_INTRODUCED_21_,X_INTRODUCED_22_,X_INTRODUCED_23_,X_INTRODUCED_24_,X_INTRODUCED_25_,X_INTRODUCED_26_,X_INTRODUCED_27_,X_INTRODUCED_28_,X_INTRODUCED_29_,X_INTRODUCED_30_,X_INTRODUCED_31_,X_INTRODUCED_32_,X_INTRODUCED_33_,X_INTRODUCED_34_,X_INTRODUCED_35_,X_INTRODUCED_36_,X_INTRODUCED_37_];
array [1..21] of var int: arrival:: output_array([1..21]) = [X_INTRODUCED_81_,X_INTRODUCED_82_,X_INTRODUCED_83_,X_INTRODUCED_84_,X_INTRODUCED_85_,X_INTRODUCED_86_,X_INTRODUCED_87_,X_INTRODUCED_88_,X_INTRODUCED_89_,X_INTRODUCED_90_,X_INTRODUCED_91_,X_INTRODUCED_92_,X_INTRODUCED_93_,X_INTRODUCED_94_,X_INTRODUCED_95_,X_INTRODUCED_96_,X_INTRODUCED_97_,X_INTRODUCED_98_,X_INTRODUCED_99_,X_INTRODUCED_100_,X_INTRODUCED_101_];
array [1..22] of var int: departure = [X_INTRODUCED_102_,X_INTRODUCED_103_,X_INTRODUCED_104_,X_INTRODUCED_105_,X_INTRODUCED_106_,X_INTRODUCED_107_,X_INTRODUCED_108_,X_INTRODUCED_109_,X_INTRODUCED_110_,X_INTRODUCED_111_,X_INTRODUCED_112_,X_INTRODUCED_113_,X_INTRODUCED_114_,X_INTRODUCED_115_,X_INTRODUCED_116_,X_INTRODUCED_117_,X_INTRODUCED_118_,X_INTRODUCED_119_,X_INTRODUCED_120_,X_INTRODUCED_121_,X_INTRODUCED_122_,0];
array [1..43] of var int: X_INTRODUCED_171_ ::var_is_introduced  = [X_INTRODUCED_16_,X_INTRODUCED_17_,X_INTRODUCED_18_,X_INTRODUCED_19_,X_INTRODUCED_20_,X_INTRODUCED_21_,X_INTRODUCED_22_,X_INTRODUCED_23_,X_INTRODUCED_24_,X_INTRODUCED_25_,X_INTRODUCED_26_,X_INTRODUCED_27_,X_INTRODUCED_28_,X_INTRODUCED_29_,X_INTRODUCED_30_,X_INTRODUCED_31_,X_INTRODUCED_32_,X_INTRODUCED_33_,X_INTRODUCED_34_,X_INTRODUCED_35_,X_INTRODUCED_36_,X_INTRODUCED_37_,X_INTRODUCED_81_,X_INTRODUCED_82_,X_INTRODUCED_83_,X_INTRODUCED_84_,X_INTRODUCED_85_,X_INTRODUCED_86_,X_INTRODUCED_87_,X_INTRODUCED_88_,X_INTRODUCED_89_,X_INTRODUCED_90_,X_INTRODUCED_91_,X_INTRODUCED_92_,X_INTRODUCED_93_,X_INTRODUCED_94_,X_INTRODUCED_95_,X_INTRODUCED_96_,X_INTRODUCED_97_,X_INTRODUCED_98_,X_INTRODUCED_99_,X_INTRODUCED_100_,X_INTRODUCED_101_];
array [1..21] of var int: X_INTRODUCED_172_ ::var_is_introduced  = [X_INTRODUCED_81_,X_INTRODUCED_90_,X_INTRODUCED_91_,X_INTRODUCED_96_,X_INTRODUCED_97_,X_INTRODUCED_98_,X_INTRODUCED_99_,X_INTRODUCED_100_,X_INTRODUCED_86_,X_INTRODUCED_82_,X_INTRODUCED_93_,X_INTRODUCED_92_,X_INTRODUCED_87_,X_INTRODUCED_94_,X_INTRODUCED_88_,X_INTRODUCED_83_,X_INTRODUCED_85_,X_INTRODUCED_89_,X_INTRODUCED_101_,X_INTRODUCED_84_,X_INTRODUCED_95_];
constraint gecode_int_element(X_INTRODUCED_16_,1,X_INTRODUCED_39_,X_INTRODUCED_40_):: defines_var(X_INTRODUCED_40_);
constraint gecode_int_element(X_INTRODUCED_17_,1,X_INTRODUCED_41_,X_INTRODUCED_42_):: defines_var(X_INTRODUCED_42_);
constraint gecode_int_element(X_INTRODUCED_18_,1,X_INTRODUCED_43_,X_INTRODUCED_44_):: defines_var(X_INTRODUCED_44_);
constraint gecode_int_element(X_INTRODUCED_19_,1,X_INTRODUCED_45_,X_INTRODUCED_46_):: defines_var(X_INTRODUCED_46_);
constraint gecode_int_element(X_INTRODUCED_20_,1,X_INTRODUCED_47_,X_INTRODUCED_48_):: defines_var(X_INTRODUCED_48_);
constraint gecode_int_element(X_INTRODUCED_21_,1,X_INTRODUCED_49_,X_INTRODUCED_50_):: defines_var(X_INTRODUCED_50_);
constraint gecode_int_element(X_INTRODUCED_22_,1,X_INTRODUCED_51_,X_INTRODUCED_52_):: defines_var(X_INTRODUCED_52_);
constraint gecode_int_element(X_INTRODUCED_23_,1,X_INTRODUCED_53_,X_INTRODUCED_54_):: defines_var(X_INTRODUCED_54_);
constraint gecode_int_element(X_INTRODUCED_24_,1,X_INTRODUCED_55_,X_INTRODUCED_56_):: defines_var(X_INTRODUCED_56_);
constraint gecode_int_element(X_INTRODUCED_25_,1,X_INTRODUCED_57_,X_INTRODUCED_58_):: defines_var(X_INTRODUCED_58_);
constraint gecode_int_element(X_INTRODUCED_26_,1,X_INTRODUCED_59_,X_INTRODUCED_60_):: defines_var(X_INTRODUCED_60_);
constraint gecode_int_element(X_INTRODUCED_27_,1,X_INTRODUCED_61_,X_INTRODUCED_62_):: defines_var(X_INTRODUCED_62_);
constraint gecode_int_element(X_INTRODUCED_28_,1,X_INTRODUCED_63_,X_INTRODUCED_64_):: defines_var(X_INTRODUCED_64_);
constraint gecode_int_element(X_INTRODUCED_29_,1,X_INTRODUCED_65_,X_INTRODUCED_66_):: defines_var(X_INTRODUCED_66_);
constraint gecode_int_element(X_INTRODUCED_30_,1,X_INTRODUCED_67_,X_INTRODUCED_68_):: defines_var(X_INTRODUCED_68_);
constraint gecode_int_element(X_INTRODUCED_31_,1,X_INTRODUCED_69_,X_INTRODUCED_70_):: defines_var(X_INTRODUCED_70_);
constraint gecode_int_element(X_INTRODUCED_32_,1,X_INTRODUCED_71_,X_INTRODUCED_72_):: defines_var(X_INTRODUCED_72_);
constraint gecode_int_element(X_INTRODUCED_33_,1,X_INTRODUCED_73_,X_INTRODUCED_74_):: defines_var(X_INTRODUCED_74_);
constraint gecode_int_element(X_INTRODUCED_34_,1,X_INTRODUCED_75_,X_INTRODUCED_76_):: defines_var(X_INTRODUCED_76_);
constraint gecode_int_element(X_INTRODUCED_35_,1,X_INTRODUCED_77_,X_INTRODUCED_78_):: defines_var(X_INTRODUCED_78_);
constraint gecode_int_element(X_INTRODUCED_36_,1,X_INTRODUCED_79_,X_INTRODUCED_80_):: defines_var(X_INTRODUCED_80_);
constraint int_max(X_INTRODUCED_81_,0,X_INTRODUCED_102_);
constraint int_max(X_INTRODUCED_82_,12,X_INTRODUCED_103_);
constraint int_max(X_INTRODUCED_83_,131,X_INTRODUCED_104_);
constraint int_max(X_INTRODUCED_84_,256,X_INTRODUCED_105_);
constraint int_max(X_INTRODUCED_85_,164,X_INTRODUCED_106_);
constraint int_max(X_INTRODUCED_86_,1,X_INTRODUCED_107_);
constraint int_max(X_INTRODUCED_87_,52,X_INTRODUCED_108_);
constraint int_max(X_INTRODUCED_88_,125,X_INTRODUCED_109_);
constraint int_max(X_INTRODUCED_89_,200,X_INTRODUCED_110_);
constraint int_max(X_INTRODUCED_90_,0,X_INTRODUCED_111_);
constraint int_max(X_INTRODUCED_91_,0,X_INTRODUCED_112_);
constraint int_max(X_INTRODUCED_92_,29,X_INTRODUCED_113_);
constraint int_max(X_INTRODUCED_93_,28,X_INTRODUCED_114_);
constraint int_max(X_INTRODUCED_94_,90,X_INTRODUCED_115_);
constraint int_max(X_INTRODUCED_95_,304,X_INTRODUCED_116_);
constraint int_max(X_INTRODUCED_96_,0,X_INTRODUCED_117_);
constraint int_max(X_INTRODUCED_97_,0,X_INTRODUCED_118_);
constraint int_max(X_INTRODUCED_98_,0,X_INTRODUCED_119_);
constraint int_max(X_INTRODUCED_99_,0,X_INTRODUCED_120_);
constraint int_max(X_INTRODUCED_100_,0,X_INTRODUCED_121_);
constraint int_max(X_INTRODUCED_101_,225,X_INTRODUCED_122_);
constraint gecode_int_element(X_INTRODUCED_16_,1,departure,X_INTRODUCED_125_):: defines_var(X_INTRODUCED_125_);
constraint gecode_int_element(X_INTRODUCED_17_,1,departure,X_INTRODUCED_126_):: defines_var(X_INTRODUCED_126_);
constraint gecode_int_element(X_INTRODUCED_18_,1,departure,X_INTRODUCED_127_):: defines_var(X_INTRODUCED_127_);
constraint gecode_int_element(X_INTRODUCED_19_,1,departure,X_INTRODUCED_128_):: defines_var(X_INTRODUCED_128_);
constraint gecode_int_element(X_INTRODUCED_20_,1,departure,X_INTRODUCED_129_):: defines_var(X_INTRODUCED_129_);
constraint gecode_int_element(X_INTRODUCED_21_,1,departure,X_INTRODUCED_130_):: defines_var(X_INTRODUCED_130_);
constraint gecode_int_element(X_INTRODUCED_22_,1,departure,X_INTRODUCED_131_):: defines_var(X_INTRODUCED_131_);
constraint gecode_int_element(X_INTRODUCED_23_,1,departure,X_INTRODUCED_132_):: defines_var(X_INTRODUCED_132_);
constraint gecode_int_element(X_INTRODUCED_24_,1,departure,X_INTRODUCED_133_):: defines_var(X_INTRODUCED_133_);
constraint gecode_int_element(X_INTRODUCED_25_,1,departure,X_INTRODUCED_134_):: defines_var(X_INTRODUCED_134_);
constraint gecode_int_element(X_INTRODUCED_26_,1,departure,X_INTRODUCED_135_):: defines_var(X_INTRODUCED_135_);
constraint gecode_int_element(X_INTRODUCED_27_,1,departure,X_INTRODUCED_136_):: defines_var(X_INTRODUCED_136_);
constraint gecode_int_element(X_INTRODUCED_28_,1,departure,X_INTRODUCED_137_):: defines_var(X_INTRODUCED_137_);
constraint gecode_int_element(X_INTRODUCED_29_,1,departure,X_INTRODUCED_138_):: defines_var(X_INTRODUCED_138_);
constraint gecode_int_element(X_INTRODUCED_30_,1,departure,X_INTRODUCED_139_):: defines_var(X_INTRODUCED_139_);
constraint gecode_int_element(X_INTRODUCED_31_,1,departure,X_INTRODUCED_140_):: defines_var(X_INTRODUCED_140_);
constraint gecode_int_element(X_INTRODUCED_32_,1,departure,X_INTRODUCED_141_):: defines_var(X_INTRODUCED_141_);
constraint gecode_int_element(X_INTRODUCED_33_,1,departure,X_INTRODUCED_142_):: defines_var(X_INTRODUCED_142_);
constraint gecode_int_element(X_INTRODUCED_34_,1,departure,X_INTRODUCED_143_):: defines_var(X_INTRODUCED_143_);
constraint gecode_int_element(X_INTRODUCED_35_,1,departure,X_INTRODUCED_144_):: defines_var(X_INTRODUCED_144_);
constraint gecode_int_element(X_INTRODUCED_36_,1,departure,X_INTRODUCED_145_):: defines_var(X_INTRODUCED_145_);
constraint gecode_int_element(X_INTRODUCED_37_,1,departure,X_INTRODUCED_146_):: defines_var(X_INTRODUCED_146_);
constraint gecode_circuit(1,pred):: domain;
constraint int_lin_eq(X_INTRODUCED_150_,[X_INTRODUCED_81_,X_INTRODUCED_125_,X_INTRODUCED_40_],0):: defines_var(X_INTRODUCED_81_);
constraint int_lin_eq(X_INTRODUCED_150_,[X_INTRODUCED_82_,X_INTRODUCED_126_,X_INTRODUCED_42_],0):: defines_var(X_INTRODUCED_82_);
constraint int_lin_eq(X_INTRODUCED_150_,[X_INTRODUCED_83_,X_INTRODUCED_127_,X_INTRODUCED_44_],0):: defines_var(X_INTRODUCED_83_);
constraint int_lin_eq(X_INTRODUCED_150_,[X_INTRODUCED_84_,X_INTRODUCED_128_,X_INTRODUCED_46_],0):: defines_var(X_INTRODUCED_84_);
constraint int_lin_eq(X_INTRODUCED_150_,[X_INTRODUCED_85_,X_INTRODUCED_129_,X_INTRODUCED_48_],0):: defines_var(X_INTRODUCED_85_);
constraint int_lin_eq(X_INTRODUCED_150_,[X_INTRODUCED_86_,X_INTRODUCED_130_,X_INTRODUCED_50_],0):: defines_var(X_INTRODUCED_86_);
constraint int_lin_eq(X_INTRODUCED_150_,[X_INTRODUCED_87_,X_INTRODUCED_131_,X_INTRODUCED_52_],0):: defines_var(X_INTRODUCED_87_);
constraint int_lin_eq(X_INTRODUCED_150_,[X_INTRODUCED_88_,X_INTRODUCED_132_,X_INTRODUCED_54_],0):: defines_var(X_INTRODUCED_88_);
constraint int_lin_eq(X_INTRODUCED_150_,[X_INTRODUCED_89_,X_INTRODUCED_133_,X_INTRODUCED_56_],0):: defines_var(X_INTRODUCED_89_);
constraint int_lin_eq(X_INTRODUCED_150_,[X_INTRODUCED_90_,X_INTRODUCED_134_,X_INTRODUCED_58_],0):: defines_var(X_INTRODUCED_90_);
constraint int_lin_eq(X_INTRODUCED_150_,[X_INTRODUCED_91_,X_INTRODUCED_135_,X_INTRODUCED_60_],0):: defines_var(X_INTRODUCED_91_);
constraint int_lin_eq(X_INTRODUCED_150_,[X_INTRODUCED_92_,X_INTRODUCED_136_,X_INTRODUCED_62_],0):: defines_var(X_INTRODUCED_92_);
constraint int_lin_eq(X_INTRODUCED_150_,[X_INTRODUCED_93_,X_INTRODUCED_137_,X_INTRODUCED_64_],0):: defines_var(X_INTRODUCED_93_);
constraint int_lin_eq(X_INTRODUCED_150_,[X_INTRODUCED_94_,X_INTRODUCED_138_,X_INTRODUCED_66_],0):: defines_var(X_INTRODUCED_94_);
constraint int_lin_eq(X_INTRODUCED_150_,[X_INTRODUCED_95_,X_INTRODUCED_139_,X_INTRODUCED_68_],0):: defines_var(X_INTRODUCED_95_);
constraint int_lin_eq(X_INTRODUCED_150_,[X_INTRODUCED_96_,X_INTRODUCED_140_,X_INTRODUCED_70_],0):: defines_var(X_INTRODUCED_96_);
constraint int_lin_eq(X_INTRODUCED_150_,[X_INTRODUCED_97_,X_INTRODUCED_141_,X_INTRODUCED_72_],0):: defines_var(X_INTRODUCED_97_);
constraint int_lin_eq(X_INTRODUCED_150_,[X_INTRODUCED_98_,X_INTRODUCED_142_,X_INTRODUCED_74_],0):: defines_var(X_INTRODUCED_98_);
constraint int_lin_eq(X_INTRODUCED_150_,[X_INTRODUCED_99_,X_INTRODUCED_143_,X_INTRODUCED_76_],0):: defines_var(X_INTRODUCED_99_);
constraint int_lin_eq(X_INTRODUCED_150_,[X_INTRODUCED_100_,X_INTRODUCED_144_,X_INTRODUCED_78_],0):: defines_var(X_INTRODUCED_100_);
constraint int_lin_eq(X_INTRODUCED_150_,[X_INTRODUCED_101_,X_INTRODUCED_145_,X_INTRODUCED_80_],0):: defines_var(X_INTRODUCED_101_);
solve :: seq_search([int_search(pred,first_fail,indomain_min,complete),int_search(X_INTRODUCED_172_,input_order,indomain_min,complete)]):: relax_and_reconstruct(X_INTRODUCED_171_,-1) minimize X_INTRODUCED_146_;
